
Gurobi 11.0.0 (win64) logging started Wed Jul 30 03:49:35 2025

Set parameter LogFile to value "C:\Users\mahu123a\Documents\3l-cvrp-heuristic\data/output/3l-cvrp/all-constraints-heuristic-basic/2025-07-30_03-49-35/BinPackLowerBound.log"

Gurobi 11.0.0 (win64) logging started Wed Jul 30 03:49:36 2025

Set parameter LogFile to value "C:\Users\mahu123a\Documents\3l-cvrp-heuristic\data/output/3l-cvrp/all-constraints-heuristic-basic/2025-07-30_03-49-35/BinPackLowerBound.log"
